c n orig vars 172
p cnf 174 1419
1 2 -173 0
3 4 -173 0
5 6 -173 0
7 8 -173 0
9 10 -173 0
11 12 -173 0
13 14 -173 0
15 16 -173 0
17 18 -173 0
19 20 -173 0
21 22 -173 0
23 24 -173 0
25 26 -173 0
27 28 -173 0
29 30 -173 0
31 32 -173 0
33 34 -173 0
35 36 -173 0
37 38 -173 0
39 40 -173 0
-41 -52 -174 0
-42 -63 -174 0
-43 -74 -174 0
-44 -85 -174 0
-45 -96 -174 0
-46 -107 -174 0
-47 -118 -174 0
-48 -129 -174 0
-49 -140 -174 0
-50 -151 -174 0
-51 -162 -174 0
-53 -64 -174 0
-54 -75 -174 0
-55 -86 -174 0
-56 -97 -174 0
-57 -108 -174 0
-58 -119 -174 0
-59 -130 -174 0
-60 -141 -174 0
-61 -152 -174 0
-62 -163 -174 0
-65 -76 -174 0
-66 -87 -174 0
-67 -98 -174 0
-68 -109 -174 0
-69 -120 -174 0
-70 -131 -174 0
-71 -142 -174 0
-72 -153 -174 0
-73 -164 -174 0
-77 -88 -174 0
-78 -99 -174 0
-79 -110 -174 0
-80 -121 -174 0
-81 -132 -174 0
-82 -143 -174 0
-83 -154 -174 0
-84 -165 -174 0
-89 -100 -174 0
-90 -111 -174 0
-91 -122 -174 0
-92 -133 -174 0
-93 -144 -174 0
-94 -155 -174 0
-95 -166 -174 0
-101 -112 -174 0
-102 -123 -174 0
-103 -134 -174 0
-104 -145 -174 0
-105 -156 -174 0
-106 -167 -174 0
-113 -124 -174 0
-114 -135 -174 0
-115 -146 -174 0
-116 -157 -174 0
-117 -168 -174 0
-125 -136 -174 0
-126 -147 -174 0
-127 -158 -174 0
-128 -169 -174 0
-137 -148 -174 0
-138 -159 -174 0
-139 -170 -174 0
-149 -160 -174 0
-150 -171 -174 0
-161 -172 -174 0
-41 -53 42 -174 0
-41 -54 43 -174 0
-41 -55 44 -174 0
-41 -56 45 -174 0
-41 -57 46 -174 0
-41 -58 47 -174 0
-41 -59 48 -174 0
-41 -60 49 -174 0
-41 -61 50 -174 0
-41 -62 51 -174 0
-42 -64 41 -174 0
-42 -65 43 -174 0
-42 -66 44 -174 0
-42 -67 45 -174 0
-42 -68 46 -174 0
-42 -69 47 -174 0
-42 -70 48 -174 0
-42 -71 49 -174 0
-42 -72 50 -174 0
-42 -73 51 -174 0
-43 -75 41 -174 0
-43 -76 42 -174 0
-43 -77 44 -174 0
-43 -78 45 -174 0
-43 -79 46 -174 0
-43 -80 47 -174 0
-43 -81 48 -174 0
-43 -82 49 -174 0
-43 -83 50 -174 0
-43 -84 51 -174 0
-44 -86 41 -174 0
-44 -87 42 -174 0
-44 -88 43 -174 0
-44 -89 45 -174 0
-44 -90 46 -174 0
-44 -91 47 -174 0
-44 -92 48 -174 0
-44 -93 49 -174 0
-44 -94 50 -174 0
-44 -95 51 -174 0
-45 -97 41 -174 0
-45 -98 42 -174 0
-45 -99 43 -174 0
-45 -100 44 -174 0
-45 -101 46 -174 0
-45 -102 47 -174 0
-45 -103 48 -174 0
-45 -104 49 -174 0
-45 -105 50 -174 0
-45 -106 51 -174 0
-46 -108 41 -174 0
-46 -109 42 -174 0
-46 -110 43 -174 0
-46 -111 44 -174 0
-46 -112 45 -174 0
-46 -113 47 -174 0
-46 -114 48 -174 0
-46 -115 49 -174 0
-46 -116 50 -174 0
-46 -117 51 -174 0
-47 -119 41 -174 0
-47 -120 42 -174 0
-47 -121 43 -174 0
-47 -122 44 -174 0
-47 -123 45 -174 0
-47 -124 46 -174 0
-47 -125 48 -174 0
-47 -126 49 -174 0
-47 -127 50 -174 0
-47 -128 51 -174 0
-48 -130 41 -174 0
-48 -131 42 -174 0
-48 -132 43 -174 0
-48 -133 44 -174 0
-48 -134 45 -174 0
-48 -135 46 -174 0
-48 -136 47 -174 0
-48 -137 49 -174 0
-48 -138 50 -174 0
-48 -139 51 -174 0
-49 -141 41 -174 0
-49 -142 42 -174 0
-49 -143 43 -174 0
-49 -144 44 -174 0
-49 -145 45 -174 0
-49 -146 46 -174 0
-49 -147 47 -174 0
-49 -148 48 -174 0
-49 -149 50 -174 0
-49 -150 51 -174 0
-50 -152 41 -174 0
-50 -153 42 -174 0
-50 -154 43 -174 0
-50 -155 44 -174 0
-50 -156 45 -174 0
-50 -157 46 -174 0
-50 -158 47 -174 0
-50 -159 48 -174 0
-50 -160 49 -174 0
-50 -161 51 -174 0
-51 -163 41 -174 0
-51 -164 42 -174 0
-51 -165 43 -174 0
-51 -166 44 -174 0
-51 -167 45 -174 0
-51 -168 46 -174 0
-51 -169 47 -174 0
-51 -170 48 -174 0
-51 -171 49 -174 0
-51 -172 50 -174 0
-52 -42 53 -174 0
-52 -43 54 -174 0
-52 -44 55 -174 0
-52 -45 56 -174 0
-52 -46 57 -174 0
-52 -47 58 -174 0
-52 -48 59 -174 0
-52 -49 60 -174 0
-52 -50 61 -174 0
-52 -51 62 -174 0
-53 -63 52 -174 0
-53 -65 54 -174 0
-53 -66 55 -174 0
-53 -67 56 -174 0
-53 -68 57 -174 0
-53 -69 58 -174 0
-53 -70 59 -174 0
-53 -71 60 -174 0
-53 -72 61 -174 0
-53 -73 62 -174 0
-54 -74 52 -174 0
-54 -76 53 -174 0
-54 -77 55 -174 0
-54 -78 56 -174 0
-54 -79 57 -174 0
-54 -80 58 -174 0
-54 -81 59 -174 0
-54 -82 60 -174 0
-54 -83 61 -174 0
-54 -84 62 -174 0
-55 -85 52 -174 0
-55 -87 53 -174 0
-55 -88 54 -174 0
-55 -89 56 -174 0
-55 -90 57 -174 0
-55 -91 58 -174 0
-55 -92 59 -174 0
-55 -93 60 -174 0
-55 -94 61 -174 0
-55 -95 62 -174 0
-56 -96 52 -174 0
-56 -98 53 -174 0
-56 -99 54 -174 0
-56 -100 55 -174 0
-56 -101 57 -174 0
-56 -102 58 -174 0
-56 -103 59 -174 0
-56 -104 60 -174 0
-56 -105 61 -174 0
-56 -106 62 -174 0
-57 -107 52 -174 0
-57 -109 53 -174 0
-57 -110 54 -174 0
-57 -111 55 -174 0
-57 -112 56 -174 0
-57 -113 58 -174 0
-57 -114 59 -174 0
-57 -115 60 -174 0
-57 -116 61 -174 0
-57 -117 62 -174 0
-58 -118 52 -174 0
-58 -120 53 -174 0
-58 -121 54 -174 0
-58 -122 55 -174 0
-58 -123 56 -174 0
-58 -124 57 -174 0
-58 -125 59 -174 0
-58 -126 60 -174 0
-58 -127 61 -174 0
-58 -128 62 -174 0
-59 -129 52 -174 0
-59 -131 53 -174 0
-59 -132 54 -174 0
-59 -133 55 -174 0
-59 -134 56 -174 0
-59 -135 57 -174 0
-59 -136 58 -174 0
-59 -137 60 -174 0
-59 -138 61 -174 0
-59 -139 62 -174 0
-60 -140 52 -174 0
-60 -142 53 -174 0
-60 -143 54 -174 0
-60 -144 55 -174 0
-60 -145 56 -174 0
-60 -146 57 -174 0
-60 -147 58 -174 0
-60 -148 59 -174 0
-60 -149 61 -174 0
-60 -150 62 -174 0
-61 -151 52 -174 0
-61 -153 53 -174 0
-61 -154 54 -174 0
-61 -155 55 -174 0
-61 -156 56 -174 0
-61 -157 57 -174 0
-61 -158 58 -174 0
-61 -159 59 -174 0
-61 -160 60 -174 0
-61 -161 62 -174 0
-62 -162 52 -174 0
-62 -164 53 -174 0
-62 -165 54 -174 0
-62 -166 55 -174 0
-62 -167 56 -174 0
-62 -168 57 -174 0
-62 -169 58 -174 0
-62 -170 59 -174 0
-62 -171 60 -174 0
-62 -172 61 -174 0
-63 -41 64 -174 0
-63 -43 65 -174 0
-63 -44 66 -174 0
-63 -45 67 -174 0
-63 -46 68 -174 0
-63 -47 69 -174 0
-63 -48 70 -174 0
-63 -49 71 -174 0
-63 -50 72 -174 0
-63 -51 73 -174 0
-64 -52 63 -174 0
-64 -54 65 -174 0
-64 -55 66 -174 0
-64 -56 67 -174 0
-64 -57 68 -174 0
-64 -58 69 -174 0
-64 -59 70 -174 0
-64 -60 71 -174 0
-64 -61 72 -174 0
-64 -62 73 -174 0
-65 -74 63 -174 0
-65 -75 64 -174 0
-65 -77 66 -174 0
-65 -78 67 -174 0
-65 -79 68 -174 0
-65 -80 69 -174 0
-65 -81 70 -174 0
-65 -82 71 -174 0
-65 -83 72 -174 0
-65 -84 73 -174 0
-66 -85 63 -174 0
-66 -86 64 -174 0
-66 -88 65 -174 0
-66 -89 67 -174 0
-66 -90 68 -174 0
-66 -91 69 -174 0
-66 -92 70 -174 0
-66 -93 71 -174 0
-66 -94 72 -174 0
-66 -95 73 -174 0
-67 -96 63 -174 0
-67 -97 64 -174 0
-67 -99 65 -174 0
-67 -100 66 -174 0
-67 -101 68 -174 0
-67 -102 69 -174 0
-67 -103 70 -174 0
-67 -104 71 -174 0
-67 -105 72 -174 0
-67 -106 73 -174 0
-68 -107 63 -174 0
-68 -108 64 -174 0
-68 -110 65 -174 0
-68 -111 66 -174 0
-68 -112 67 -174 0
-68 -113 69 -174 0
-68 -114 70 -174 0
-68 -115 71 -174 0
-68 -116 72 -174 0
-68 -117 73 -174 0
-69 -118 63 -174 0
-69 -119 64 -174 0
-69 -121 65 -174 0
-69 -122 66 -174 0
-69 -123 67 -174 0
-69 -124 68 -174 0
-69 -125 70 -174 0
-69 -126 71 -174 0
-69 -127 72 -174 0
-69 -128 73 -174 0
-70 -129 63 -174 0
-70 -130 64 -174 0
-70 -132 65 -174 0
-70 -133 66 -174 0
-70 -134 67 -174 0
-70 -135 68 -174 0
-70 -136 69 -174 0
-70 -137 71 -174 0
-70 -138 72 -174 0
-70 -139 73 -174 0
-71 -140 63 -174 0
-71 -141 64 -174 0
-71 -143 65 -174 0
-71 -144 66 -174 0
-71 -145 67 -174 0
-71 -146 68 -174 0
-71 -147 69 -174 0
-71 -148 70 -174 0
-71 -149 72 -174 0
-71 -150 73 -174 0
-72 -151 63 -174 0
-72 -152 64 -174 0
-72 -154 65 -174 0
-72 -155 66 -174 0
-72 -156 67 -174 0
-72 -157 68 -174 0
-72 -158 69 -174 0
-72 -159 70 -174 0
-72 -160 71 -174 0
-72 -161 73 -174 0
-73 -162 63 -174 0
-73 -163 64 -174 0
-73 -165 65 -174 0
-73 -166 66 -174 0
-73 -167 67 -174 0
-73 -168 68 -174 0
-73 -169 69 -174 0
-73 -170 70 -174 0
-73 -171 71 -174 0
-73 -172 72 -174 0
-74 -41 75 -174 0
-74 -42 76 -174 0
-74 -44 77 -174 0
-74 -45 78 -174 0
-74 -46 79 -174 0
-74 -47 80 -174 0
-74 -48 81 -174 0
-74 -49 82 -174 0
-74 -50 83 -174 0
-74 -51 84 -174 0
-75 -52 74 -174 0
-75 -53 76 -174 0
-75 -55 77 -174 0
-75 -56 78 -174 0
-75 -57 79 -174 0
-75 -58 80 -174 0
-75 -59 81 -174 0
-75 -60 82 -174 0
-75 -61 83 -174 0
-75 -62 84 -174 0
-76 -63 74 -174 0
-76 -64 75 -174 0
-76 -66 77 -174 0
-76 -67 78 -174 0
-76 -68 79 -174 0
-76 -69 80 -174 0
-76 -70 81 -174 0
-76 -71 82 -174 0
-76 -72 83 -174 0
-76 -73 84 -174 0
-77 -85 74 -174 0
-77 -86 75 -174 0
-77 -87 76 -174 0
-77 -89 78 -174 0
-77 -90 79 -174 0
-77 -91 80 -174 0
-77 -92 81 -174 0
-77 -93 82 -174 0
-77 -94 83 -174 0
-77 -95 84 -174 0
-78 -96 74 -174 0
-78 -97 75 -174 0
-78 -98 76 -174 0
-78 -100 77 -174 0
-78 -101 79 -174 0
-78 -102 80 -174 0
-78 -103 81 -174 0
-78 -104 82 -174 0
-78 -105 83 -174 0
-78 -106 84 -174 0
-79 -107 74 -174 0
-79 -108 75 -174 0
-79 -109 76 -174 0
-79 -111 77 -174 0
-79 -112 78 -174 0
-79 -113 80 -174 0
-79 -114 81 -174 0
-79 -115 82 -174 0
-79 -116 83 -174 0
-79 -117 84 -174 0
-80 -118 74 -174 0
-80 -119 75 -174 0
-80 -120 76 -174 0
-80 -122 77 -174 0
-80 -123 78 -174 0
-80 -124 79 -174 0
-80 -125 81 -174 0
-80 -126 82 -174 0
-80 -127 83 -174 0
-80 -128 84 -174 0
-81 -129 74 -174 0
-81 -130 75 -174 0
-81 -131 76 -174 0
-81 -133 77 -174 0
-81 -134 78 -174 0
-81 -135 79 -174 0
-81 -136 80 -174 0
-81 -137 82 -174 0
-81 -138 83 -174 0
-81 -139 84 -174 0
-82 -140 74 -174 0
-82 -141 75 -174 0
-82 -142 76 -174 0
-82 -144 77 -174 0
-82 -145 78 -174 0
-82 -146 79 -174 0
-82 -147 80 -174 0
-82 -148 81 -174 0
-82 -149 83 -174 0
-82 -150 84 -174 0
-83 -151 74 -174 0
-83 -152 75 -174 0
-83 -153 76 -174 0
-83 -155 77 -174 0
-83 -156 78 -174 0
-83 -157 79 -174 0
-83 -158 80 -174 0
-83 -159 81 -174 0
-83 -160 82 -174 0
-83 -161 84 -174 0
-84 -162 74 -174 0
-84 -163 75 -174 0
-84 -164 76 -174 0
-84 -166 77 -174 0
-84 -167 78 -174 0
-84 -168 79 -174 0
-84 -169 80 -174 0
-84 -170 81 -174 0
-84 -171 82 -174 0
-84 -172 83 -174 0
-85 -41 86 -174 0
-85 -42 87 -174 0
-85 -43 88 -174 0
-85 -45 89 -174 0
-85 -46 90 -174 0
-85 -47 91 -174 0
-85 -48 92 -174 0
-85 -49 93 -174 0
-85 -50 94 -174 0
-85 -51 95 -174 0
-86 -52 85 -174 0
-86 -53 87 -174 0
-86 -54 88 -174 0
-86 -56 89 -174 0
-86 -57 90 -174 0
-86 -58 91 -174 0
-86 -59 92 -174 0
-86 -60 93 -174 0
-86 -61 94 -174 0
-86 -62 95 -174 0
-87 -63 85 -174 0
-87 -64 86 -174 0
-87 -65 88 -174 0
-87 -67 89 -174 0
-87 -68 90 -174 0
-87 -69 91 -174 0
-87 -70 92 -174 0
-87 -71 93 -174 0
-87 -72 94 -174 0
-87 -73 95 -174 0
-88 -74 85 -174 0
-88 -75 86 -174 0
-88 -76 87 -174 0
-88 -78 89 -174 0
-88 -79 90 -174 0
-88 -80 91 -174 0
-88 -81 92 -174 0
-88 -82 93 -174 0
-88 -83 94 -174 0
-88 -84 95 -174 0
-89 -96 85 -174 0
-89 -97 86 -174 0
-89 -98 87 -174 0
-89 -99 88 -174 0
-89 -101 90 -174 0
-89 -102 91 -174 0
-89 -103 92 -174 0
-89 -104 93 -174 0
-89 -105 94 -174 0
-89 -106 95 -174 0
-90 -107 85 -174 0
-90 -108 86 -174 0
-90 -109 87 -174 0
-90 -110 88 -174 0
-90 -112 89 -174 0
-90 -113 91 -174 0
-90 -114 92 -174 0
-90 -115 93 -174 0
-90 -116 94 -174 0
-90 -117 95 -174 0
-91 -118 85 -174 0
-91 -119 86 -174 0
-91 -120 87 -174 0
-91 -121 88 -174 0
-91 -123 89 -174 0
-91 -124 90 -174 0
-91 -125 92 -174 0
-91 -126 93 -174 0
-91 -127 94 -174 0
-91 -128 95 -174 0
-92 -129 85 -174 0
-92 -130 86 -174 0
-92 -131 87 -174 0
-92 -132 88 -174 0
-92 -134 89 -174 0
-92 -135 90 -174 0
-92 -136 91 -174 0
-92 -137 93 -174 0
-92 -138 94 -174 0
-92 -139 95 -174 0
-93 -140 85 -174 0
-93 -141 86 -174 0
-93 -142 87 -174 0
-93 -143 88 -174 0
-93 -145 89 -174 0
-93 -146 90 -174 0
-93 -147 91 -174 0
-93 -148 92 -174 0
-93 -149 94 -174 0
-93 -150 95 -174 0
-94 -151 85 -174 0
-94 -152 86 -174 0
-94 -153 87 -174 0
-94 -154 88 -174 0
-94 -156 89 -174 0
-94 -157 90 -174 0
-94 -158 91 -174 0
-94 -159 92 -174 0
-94 -160 93 -174 0
-94 -161 95 -174 0
-95 -162 85 -174 0
-95 -163 86 -174 0
-95 -164 87 -174 0
-95 -165 88 -174 0
-95 -167 89 -174 0
-95 -168 90 -174 0
-95 -169 91 -174 0
-95 -170 92 -174 0
-95 -171 93 -174 0
-95 -172 94 -174 0
-96 -41 97 -174 0
-96 -42 98 -174 0
-96 -43 99 -174 0
-96 -44 100 -174 0
-96 -46 101 -174 0
-96 -47 102 -174 0
-96 -48 103 -174 0
-96 -49 104 -174 0
-96 -50 105 -174 0
-96 -51 106 -174 0
-97 -52 96 -174 0
-97 -53 98 -174 0
-97 -54 99 -174 0
-97 -55 100 -174 0
-97 -57 101 -174 0
-97 -58 102 -174 0
-97 -59 103 -174 0
-97 -60 104 -174 0
-97 -61 105 -174 0
-97 -62 106 -174 0
-98 -63 96 -174 0
-98 -64 97 -174 0
-98 -65 99 -174 0
-98 -66 100 -174 0
-98 -68 101 -174 0
-98 -69 102 -174 0
-98 -70 103 -174 0
-98 -71 104 -174 0
-98 -72 105 -174 0
-98 -73 106 -174 0
-99 -74 96 -174 0
-99 -75 97 -174 0
-99 -76 98 -174 0
-99 -77 100 -174 0
-99 -79 101 -174 0
-99 -80 102 -174 0
-99 -81 103 -174 0
-99 -82 104 -174 0
-99 -83 105 -174 0
-99 -84 106 -174 0
-100 -85 96 -174 0
-100 -86 97 -174 0
-100 -87 98 -174 0
-100 -88 99 -174 0
-100 -90 101 -174 0
-100 -91 102 -174 0
-100 -92 103 -174 0
-100 -93 104 -174 0
-100 -94 105 -174 0
-100 -95 106 -174 0
-101 -107 96 -174 0
-101 -108 97 -174 0
-101 -109 98 -174 0
-101 -110 99 -174 0
-101 -111 100 -174 0
-101 -113 102 -174 0
-101 -114 103 -174 0
-101 -115 104 -174 0
-101 -116 105 -174 0
-101 -117 106 -174 0
-102 -118 96 -174 0
-102 -119 97 -174 0
-102 -120 98 -174 0
-102 -121 99 -174 0
-102 -122 100 -174 0
-102 -124 101 -174 0
-102 -125 103 -174 0
-102 -126 104 -174 0
-102 -127 105 -174 0
-102 -128 106 -174 0
-103 -129 96 -174 0
-103 -130 97 -174 0
-103 -131 98 -174 0
-103 -132 99 -174 0
-103 -133 100 -174 0
-103 -135 101 -174 0
-103 -136 102 -174 0
-103 -137 104 -174 0
-103 -138 105 -174 0
-103 -139 106 -174 0
-104 -140 96 -174 0
-104 -141 97 -174 0
-104 -142 98 -174 0
-104 -143 99 -174 0
-104 -144 100 -174 0
-104 -146 101 -174 0
-104 -147 102 -174 0
-104 -148 103 -174 0
-104 -149 105 -174 0
-104 -150 106 -174 0
-105 -151 96 -174 0
-105 -152 97 -174 0
-105 -153 98 -174 0
-105 -154 99 -174 0
-105 -155 100 -174 0
-105 -157 101 -174 0
-105 -158 102 -174 0
-105 -159 103 -174 0
-105 -160 104 -174 0
-105 -161 106 -174 0
-106 -162 96 -174 0
-106 -163 97 -174 0
-106 -164 98 -174 0
-106 -165 99 -174 0
-106 -166 100 -174 0
-106 -168 101 -174 0
-106 -169 102 -174 0
-106 -170 103 -174 0
-106 -171 104 -174 0
-106 -172 105 -174 0
-107 -41 108 -174 0
-107 -42 109 -174 0
-107 -43 110 -174 0
-107 -44 111 -174 0
-107 -45 112 -174 0
-107 -47 113 -174 0
-107 -48 114 -174 0
-107 -49 115 -174 0
-107 -50 116 -174 0
-107 -51 117 -174 0
-108 -52 107 -174 0
-108 -53 109 -174 0
-108 -54 110 -174 0
-108 -55 111 -174 0
-108 -56 112 -174 0
-108 -58 113 -174 0
-108 -59 114 -174 0
-108 -60 115 -174 0
-108 -61 116 -174 0
-108 -62 117 -174 0
-109 -63 107 -174 0
-109 -64 108 -174 0
-109 -65 110 -174 0
-109 -66 111 -174 0
-109 -67 112 -174 0
-109 -69 113 -174 0
-109 -70 114 -174 0
-109 -71 115 -174 0
-109 -72 116 -174 0
-109 -73 117 -174 0
-110 -74 107 -174 0
-110 -75 108 -174 0
-110 -76 109 -174 0
-110 -77 111 -174 0
-110 -78 112 -174 0
-110 -80 113 -174 0
-110 -81 114 -174 0
-110 -82 115 -174 0
-110 -83 116 -174 0
-110 -84 117 -174 0
-111 -85 107 -174 0
-111 -86 108 -174 0
-111 -87 109 -174 0
-111 -88 110 -174 0
-111 -89 112 -174 0
-111 -91 113 -174 0
-111 -92 114 -174 0
-111 -93 115 -174 0
-111 -94 116 -174 0
-111 -95 117 -174 0
-112 -96 107 -174 0
-112 -97 108 -174 0
-112 -98 109 -174 0
-112 -99 110 -174 0
-112 -100 111 -174 0
-112 -102 113 -174 0
-112 -103 114 -174 0
-112 -104 115 -174 0
-112 -105 116 -174 0
-112 -106 117 -174 0
-113 -118 107 -174 0
-113 -119 108 -174 0
-113 -120 109 -174 0
-113 -121 110 -174 0
-113 -122 111 -174 0
-113 -123 112 -174 0
-113 -125 114 -174 0
-113 -126 115 -174 0
-113 -127 116 -174 0
-113 -128 117 -174 0
-114 -129 107 -174 0
-114 -130 108 -174 0
-114 -131 109 -174 0
-114 -132 110 -174 0
-114 -133 111 -174 0
-114 -134 112 -174 0
-114 -136 113 -174 0
-114 -137 115 -174 0
-114 -138 116 -174 0
-114 -139 117 -174 0
-115 -140 107 -174 0
-115 -141 108 -174 0
-115 -142 109 -174 0
-115 -143 110 -174 0
-115 -144 111 -174 0
-115 -145 112 -174 0
-115 -147 113 -174 0
-115 -148 114 -174 0
-115 -149 116 -174 0
-115 -150 117 -174 0
-116 -151 107 -174 0
-116 -152 108 -174 0
-116 -153 109 -174 0
-116 -154 110 -174 0
-116 -155 111 -174 0
-116 -156 112 -174 0
-116 -158 113 -174 0
-116 -159 114 -174 0
-116 -160 115 -174 0
-116 -161 117 -174 0
-117 -162 107 -174 0
-117 -163 108 -174 0
-117 -164 109 -174 0
-117 -165 110 -174 0
-117 -166 111 -174 0
-117 -167 112 -174 0
-117 -169 113 -174 0
-117 -170 114 -174 0
-117 -171 115 -174 0
-117 -172 116 -174 0
-118 -41 119 -174 0
-118 -42 120 -174 0
-118 -43 121 -174 0
-118 -44 122 -174 0
-118 -45 123 -174 0
-118 -46 124 -174 0
-118 -48 125 -174 0
-118 -49 126 -174 0
-118 -50 127 -174 0
-118 -51 128 -174 0
-119 -52 118 -174 0
-119 -53 120 -174 0
-119 -54 121 -174 0
-119 -55 122 -174 0
-119 -56 123 -174 0
-119 -57 124 -174 0
-119 -59 125 -174 0
-119 -60 126 -174 0
-119 -61 127 -174 0
-119 -62 128 -174 0
-120 -63 118 -174 0
-120 -64 119 -174 0
-120 -65 121 -174 0
-120 -66 122 -174 0
-120 -67 123 -174 0
-120 -68 124 -174 0
-120 -70 125 -174 0
-120 -71 126 -174 0
-120 -72 127 -174 0
-120 -73 128 -174 0
-121 -74 118 -174 0
-121 -75 119 -174 0
-121 -76 120 -174 0
-121 -77 122 -174 0
-121 -78 123 -174 0
-121 -79 124 -174 0
-121 -81 125 -174 0
-121 -82 126 -174 0
-121 -83 127 -174 0
-121 -84 128 -174 0
-122 -85 118 -174 0
-122 -86 119 -174 0
-122 -87 120 -174 0
-122 -88 121 -174 0
-122 -89 123 -174 0
-122 -90 124 -174 0
-122 -92 125 -174 0
-122 -93 126 -174 0
-122 -94 127 -174 0
-122 -95 128 -174 0
-123 -96 118 -174 0
-123 -97 119 -174 0
-123 -98 120 -174 0
-123 -99 121 -174 0
-123 -100 122 -174 0
-123 -101 124 -174 0
-123 -103 125 -174 0
-123 -104 126 -174 0
-123 -105 127 -174 0
-123 -106 128 -174 0
-124 -107 118 -174 0
-124 -108 119 -174 0
-124 -109 120 -174 0
-124 -110 121 -174 0
-124 -111 122 -174 0
-124 -112 123 -174 0
-124 -114 125 -174 0
-124 -115 126 -174 0
-124 -116 127 -174 0
-124 -117 128 -174 0
-125 -129 118 -174 0
-125 -130 119 -174 0
-125 -131 120 -174 0
-125 -132 121 -174 0
-125 -133 122 -174 0
-125 -134 123 -174 0
-125 -135 124 -174 0
-125 -137 126 -174 0
-125 -138 127 -174 0
-125 -139 128 -174 0
-126 -140 118 -174 0
-126 -141 119 -174 0
-126 -142 120 -174 0
-126 -143 121 -174 0
-126 -144 122 -174 0
-126 -145 123 -174 0
-126 -146 124 -174 0
-126 -148 125 -174 0
-126 -149 127 -174 0
-126 -150 128 -174 0
-127 -151 118 -174 0
-127 -152 119 -174 0
-127 -153 120 -174 0
-127 -154 121 -174 0
-127 -155 122 -174 0
-127 -156 123 -174 0
-127 -157 124 -174 0
-127 -159 125 -174 0
-127 -160 126 -174 0
-127 -161 128 -174 0
-128 -162 118 -174 0
-128 -163 119 -174 0
-128 -164 120 -174 0
-128 -165 121 -174 0
-128 -166 122 -174 0
-128 -167 123 -174 0
-128 -168 124 -174 0
-128 -170 125 -174 0
-128 -171 126 -174 0
-128 -172 127 -174 0
-129 -41 130 -174 0
-129 -42 131 -174 0
-129 -43 132 -174 0
-129 -44 133 -174 0
-129 -45 134 -174 0
-129 -46 135 -174 0
-129 -47 136 -174 0
-129 -49 137 -174 0
-129 -50 138 -174 0
-129 -51 139 -174 0
-130 -52 129 -174 0
-130 -53 131 -174 0
-130 -54 132 -174 0
-130 -55 133 -174 0
-130 -56 134 -174 0
-130 -57 135 -174 0
-130 -58 136 -174 0
-130 -60 137 -174 0
-130 -61 138 -174 0
-130 -62 139 -174 0
-131 -63 129 -174 0
-131 -64 130 -174 0
-131 -65 132 -174 0
-131 -66 133 -174 0
-131 -67 134 -174 0
-131 -68 135 -174 0
-131 -69 136 -174 0
-131 -71 137 -174 0
-131 -72 138 -174 0
-131 -73 139 -174 0
-132 -74 129 -174 0
-132 -75 130 -174 0
-132 -76 131 -174 0
-132 -77 133 -174 0
-132 -78 134 -174 0
-132 -79 135 -174 0
-132 -80 136 -174 0
-132 -82 137 -174 0
-132 -83 138 -174 0
-132 -84 139 -174 0
-133 -85 129 -174 0
-133 -86 130 -174 0
-133 -87 131 -174 0
-133 -88 132 -174 0
-133 -89 134 -174 0
-133 -90 135 -174 0
-133 -91 136 -174 0
-133 -93 137 -174 0
-133 -94 138 -174 0
-133 -95 139 -174 0
-134 -96 129 -174 0
-134 -97 130 -174 0
-134 -98 131 -174 0
-134 -99 132 -174 0
-134 -100 133 -174 0
-134 -101 135 -174 0
-134 -102 136 -174 0
-134 -104 137 -174 0
-134 -105 138 -174 0
-134 -106 139 -174 0
-135 -107 129 -174 0
-135 -108 130 -174 0
-135 -109 131 -174 0
-135 -110 132 -174 0
-135 -111 133 -174 0
-135 -112 134 -174 0
-135 -113 136 -174 0
-135 -115 137 -174 0
-135 -116 138 -174 0
-135 -117 139 -174 0
-136 -118 129 -174 0
-136 -119 130 -174 0
-136 -120 131 -174 0
-136 -121 132 -174 0
-136 -122 133 -174 0
-136 -123 134 -174 0
-136 -124 135 -174 0
-136 -126 137 -174 0
-136 -127 138 -174 0
-136 -128 139 -174 0
-137 -140 129 -174 0
-137 -141 130 -174 0
-137 -142 131 -174 0
-137 -143 132 -174 0
-137 -144 133 -174 0
-137 -145 134 -174 0
-137 -146 135 -174 0
-137 -147 136 -174 0
-137 -149 138 -174 0
-137 -150 139 -174 0
-138 -151 129 -174 0
-138 -152 130 -174 0
-138 -153 131 -174 0
-138 -154 132 -174 0
-138 -155 133 -174 0
-138 -156 134 -174 0
-138 -157 135 -174 0
-138 -158 136 -174 0
-138 -160 137 -174 0
-138 -161 139 -174 0
-139 -162 129 -174 0
-139 -163 130 -174 0
-139 -164 131 -174 0
-139 -165 132 -174 0
-139 -166 133 -174 0
-139 -167 134 -174 0
-139 -168 135 -174 0
-139 -169 136 -174 0
-139 -171 137 -174 0
-139 -172 138 -174 0
-140 -41 141 -174 0
-140 -42 142 -174 0
-140 -43 143 -174 0
-140 -44 144 -174 0
-140 -45 145 -174 0
-140 -46 146 -174 0
-140 -47 147 -174 0
-140 -48 148 -174 0
-140 -50 149 -174 0
-140 -51 150 -174 0
-141 -52 140 -174 0
-141 -53 142 -174 0
-141 -54 143 -174 0
-141 -55 144 -174 0
-141 -56 145 -174 0
-141 -57 146 -174 0
-141 -58 147 -174 0
-141 -59 148 -174 0
-141 -61 149 -174 0
-141 -62 150 -174 0
-142 -63 140 -174 0
-142 -64 141 -174 0
-142 -65 143 -174 0
-142 -66 144 -174 0
-142 -67 145 -174 0
-142 -68 146 -174 0
-142 -69 147 -174 0
-142 -70 148 -174 0
-142 -72 149 -174 0
-142 -73 150 -174 0
-143 -74 140 -174 0
-143 -75 141 -174 0
-143 -76 142 -174 0
-143 -77 144 -174 0
-143 -78 145 -174 0
-143 -79 146 -174 0
-143 -80 147 -174 0
-143 -81 148 -174 0
-143 -83 149 -174 0
-143 -84 150 -174 0
-144 -85 140 -174 0
-144 -86 141 -174 0
-144 -87 142 -174 0
-144 -88 143 -174 0
-144 -89 145 -174 0
-144 -90 146 -174 0
-144 -91 147 -174 0
-144 -92 148 -174 0
-144 -94 149 -174 0
-144 -95 150 -174 0
-145 -96 140 -174 0
-145 -97 141 -174 0
-145 -98 142 -174 0
-145 -99 143 -174 0
-145 -100 144 -174 0
-145 -101 146 -174 0
-145 -102 147 -174 0
-145 -103 148 -174 0
-145 -105 149 -174 0
-145 -106 150 -174 0
-146 -107 140 -174 0
-146 -108 141 -174 0
-146 -109 142 -174 0
-146 -110 143 -174 0
-146 -111 144 -174 0
-146 -112 145 -174 0
-146 -113 147 -174 0
-146 -114 148 -174 0
-146 -116 149 -174 0
-146 -117 150 -174 0
-147 -118 140 -174 0
-147 -119 141 -174 0
-147 -120 142 -174 0
-147 -121 143 -174 0
-147 -122 144 -174 0
-147 -123 145 -174 0
-147 -124 146 -174 0
-147 -125 148 -174 0
-147 -127 149 -174 0
-147 -128 150 -174 0
-148 -129 140 -174 0
-148 -130 141 -174 0
-148 -131 142 -174 0
-148 -132 143 -174 0
-148 -133 144 -174 0
-148 -134 145 -174 0
-148 -135 146 -174 0
-148 -136 147 -174 0
-148 -138 149 -174 0
-148 -139 150 -174 0
-149 -151 140 -174 0
-149 -152 141 -174 0
-149 -153 142 -174 0
-149 -154 143 -174 0
-149 -155 144 -174 0
-149 -156 145 -174 0
-149 -157 146 -174 0
-149 -158 147 -174 0
-149 -159 148 -174 0
-149 -161 150 -174 0
-150 -162 140 -174 0
-150 -163 141 -174 0
-150 -164 142 -174 0
-150 -165 143 -174 0
-150 -166 144 -174 0
-150 -167 145 -174 0
-150 -168 146 -174 0
-150 -169 147 -174 0
-150 -170 148 -174 0
-150 -172 149 -174 0
-151 -41 152 -174 0
-151 -42 153 -174 0
-151 -43 154 -174 0
-151 -44 155 -174 0
-151 -45 156 -174 0
-151 -46 157 -174 0
-151 -47 158 -174 0
-151 -48 159 -174 0
-151 -49 160 -174 0
-151 -51 161 -174 0
-152 -52 151 -174 0
-152 -53 153 -174 0
-152 -54 154 -174 0
-152 -55 155 -174 0
-152 -56 156 -174 0
-152 -57 157 -174 0
-152 -58 158 -174 0
-152 -59 159 -174 0
-152 -60 160 -174 0
-152 -62 161 -174 0
-153 -63 151 -174 0
-153 -64 152 -174 0
-153 -65 154 -174 0
-153 -66 155 -174 0
-153 -67 156 -174 0
-153 -68 157 -174 0
-153 -69 158 -174 0
-153 -70 159 -174 0
-153 -71 160 -174 0
-153 -73 161 -174 0
-154 -74 151 -174 0
-154 -75 152 -174 0
-154 -76 153 -174 0
-154 -77 155 -174 0
-154 -78 156 -174 0
-154 -79 157 -174 0
-154 -80 158 -174 0
-154 -81 159 -174 0
-154 -82 160 -174 0
-154 -84 161 -174 0
-155 -85 151 -174 0
-155 -86 152 -174 0
-155 -87 153 -174 0
-155 -88 154 -174 0
-155 -89 156 -174 0
-155 -90 157 -174 0
-155 -91 158 -174 0
-155 -92 159 -174 0
-155 -93 160 -174 0
-155 -95 161 -174 0
-156 -96 151 -174 0
-156 -97 152 -174 0
-156 -98 153 -174 0
-156 -99 154 -174 0
-156 -100 155 -174 0
-156 -101 157 -174 0
-156 -102 158 -174 0
-156 -103 159 -174 0
-156 -104 160 -174 0
-156 -106 161 -174 0
-157 -107 151 -174 0
-157 -108 152 -174 0
-157 -109 153 -174 0
-157 -110 154 -174 0
-157 -111 155 -174 0
-157 -112 156 -174 0
-157 -113 158 -174 0
-157 -114 159 -174 0
-157 -115 160 -174 0
-157 -117 161 -174 0
-158 -118 151 -174 0
-158 -119 152 -174 0
-158 -120 153 -174 0
-158 -121 154 -174 0
-158 -122 155 -174 0
-158 -123 156 -174 0
-158 -124 157 -174 0
-158 -125 159 -174 0
-158 -126 160 -174 0
-158 -128 161 -174 0
-159 -129 151 -174 0
-159 -130 152 -174 0
-159 -131 153 -174 0
-159 -132 154 -174 0
-159 -133 155 -174 0
-159 -134 156 -174 0
-159 -135 157 -174 0
-159 -136 158 -174 0
-159 -137 160 -174 0
-159 -139 161 -174 0
-160 -140 151 -174 0
-160 -141 152 -174 0
-160 -142 153 -174 0
-160 -143 154 -174 0
-160 -144 155 -174 0
-160 -145 156 -174 0
-160 -146 157 -174 0
-160 -147 158 -174 0
-160 -148 159 -174 0
-160 -150 161 -174 0
-161 -162 151 -174 0
-161 -163 152 -174 0
-161 -164 153 -174 0
-161 -165 154 -174 0
-161 -166 155 -174 0
-161 -167 156 -174 0
-161 -168 157 -174 0
-161 -169 158 -174 0
-161 -170 159 -174 0
-161 -171 160 -174 0
-162 -41 163 -174 0
-162 -42 164 -174 0
-162 -43 165 -174 0
-162 -44 166 -174 0
-162 -45 167 -174 0
-162 -46 168 -174 0
-162 -47 169 -174 0
-162 -48 170 -174 0
-162 -49 171 -174 0
-162 -50 172 -174 0
-163 -52 162 -174 0
-163 -53 164 -174 0
-163 -54 165 -174 0
-163 -55 166 -174 0
-163 -56 167 -174 0
-163 -57 168 -174 0
-163 -58 169 -174 0
-163 -59 170 -174 0
-163 -60 171 -174 0
-163 -61 172 -174 0
-164 -63 162 -174 0
-164 -64 163 -174 0
-164 -65 165 -174 0
-164 -66 166 -174 0
-164 -67 167 -174 0
-164 -68 168 -174 0
-164 -69 169 -174 0
-164 -70 170 -174 0
-164 -71 171 -174 0
-164 -72 172 -174 0
-165 -74 162 -174 0
-165 -75 163 -174 0
-165 -76 164 -174 0
-165 -77 166 -174 0
-165 -78 167 -174 0
-165 -79 168 -174 0
-165 -80 169 -174 0
-165 -81 170 -174 0
-165 -82 171 -174 0
-165 -83 172 -174 0
-166 -85 162 -174 0
-166 -86 163 -174 0
-166 -87 164 -174 0
-166 -88 165 -174 0
-166 -89 167 -174 0
-166 -90 168 -174 0
-166 -91 169 -174 0
-166 -92 170 -174 0
-166 -93 171 -174 0
-166 -94 172 -174 0
-167 -96 162 -174 0
-167 -97 163 -174 0
-167 -98 164 -174 0
-167 -99 165 -174 0
-167 -100 166 -174 0
-167 -101 168 -174 0
-167 -102 169 -174 0
-167 -103 170 -174 0
-167 -104 171 -174 0
-167 -105 172 -174 0
-168 -107 162 -174 0
-168 -108 163 -174 0
-168 -109 164 -174 0
-168 -110 165 -174 0
-168 -111 166 -174 0
-168 -112 167 -174 0
-168 -113 169 -174 0
-168 -114 170 -174 0
-168 -115 171 -174 0
-168 -116 172 -174 0
-169 -118 162 -174 0
-169 -119 163 -174 0
-169 -120 164 -174 0
-169 -121 165 -174 0
-169 -122 166 -174 0
-169 -123 167 -174 0
-169 -124 168 -174 0
-169 -125 170 -174 0
-169 -126 171 -174 0
-169 -127 172 -174 0
-170 -129 162 -174 0
-170 -130 163 -174 0
-170 -131 164 -174 0
-170 -132 165 -174 0
-170 -133 166 -174 0
-170 -134 167 -174 0
-170 -135 168 -174 0
-170 -136 169 -174 0
-170 -137 171 -174 0
-170 -138 172 -174 0
-171 -140 162 -174 0
-171 -141 163 -174 0
-171 -142 164 -174 0
-171 -143 165 -174 0
-171 -144 166 -174 0
-171 -145 167 -174 0
-171 -146 168 -174 0
-171 -147 169 -174 0
-171 -148 170 -174 0
-171 -149 172 -174 0
-172 -151 162 -174 0
-172 -152 163 -174 0
-172 -153 164 -174 0
-172 -154 165 -174 0
-172 -155 166 -174 0
-172 -156 167 -174 0
-172 -157 168 -174 0
-172 -158 169 -174 0
-172 -159 170 -174 0
-172 -160 171 -174 0
52 63 74 85 96 107 118 129 140 151 162 -174 0
41 64 75 86 97 108 119 130 141 152 163 -174 0
42 53 76 87 98 109 120 131 142 153 164 -174 0
43 54 65 88 99 110 121 132 143 154 165 -174 0
44 55 66 77 100 111 122 133 144 155 166 -174 0
45 56 67 78 89 112 123 134 145 156 167 -174 0
46 57 68 79 90 101 124 135 146 157 168 -174 0
47 58 69 80 91 102 113 136 147 158 169 -174 0
48 59 70 81 92 103 114 125 148 159 170 -174 0
49 60 71 82 93 104 115 126 137 160 171 -174 0
50 61 72 83 94 105 116 127 138 149 172 -174 0
51 62 73 84 95 106 117 128 139 150 161 -174 0
173 174 0
